words_hard_train/5327.qaiger
aag 82 16 0 1 66
2
4
8
12
16
20
24
28
36
38
42
46
48
52
58
140
165
6 2 4
10 6 8
14 10 12
18 14 16
22 18 20
26 22 24
30 26 29
32 27 28
34 31 33
40 37 39
44 40 43
50 47 49
54 50 53
56 44 54
60 57 58
62 34 61
64 48 58
66 23 25
68 67 27
70 65 69
72 64 68
74 42 58
76 19 21
78 77 23
80 74 78
82 73 81
84 11 13
86 46 58
88 85 86
90 88 15
92 36 58
94 3 5
96 92 95
98 97 7
100 52 58
102 100 8
104 98 103
106 101 9
108 107 11
110 105 108
112 91 111
114 38 58
116 15 17
118 117 19
120 115 119
122 113 121
124 87 13
126 122 125
128 114 118
130 127 129
132 75 79
134 131 133
136 82 135
138 71 137
142 56 141
144 143 58
146 57 140
148 144 147
150 138 148
152 62 150
154 63 151
156 35 60
158 139 149
160 157 159
162 154 161
164 153 163
i0 1 x1[0]
i1 1 x1[1]
i2 1 x1[2]
i3 1 x1[3]
i4 1 x1[4]
i5 1 x1[5]
i6 1 x1[6]
i7 1 x1[7]
i8 2 y2[0]
i9 2 y2[3]
i10 2 y2[4]
i11 2 y2[2]
i12 2 y2[5]
i13 2 y2[1]
i14 2 y2[7]
i15 2 y2[6]
o0 bv[0]
c
simplified
  >
    subtract
      abs
        2 y2
      2 y2
    add
      1 x1
      1
