words_hard_train/5327.qaiger.qdimacs
p cnf 82 199
a 1 2 4 6 8 10 12 14 0
e 3 5 7 9 11 13 15 16 17 18 19 20 21 22 23 24 25 26 27 28 29 30 31 32 33 34 35 36 37 38 39 40 41 42 43 44 45 46 47 48 49 50 51 52 53 54 55 56 57 58 59 60 61 62 63 64 65 66 67 68 69 70 71 72 73 74 75 76 77 78 79 80 81 82 0
-1 -2 3 0
1 -3 0
2 -3 0
-3 -4 5 0
3 -5 0
4 -5 0
-5 -6 7 0
5 -7 0
6 -7 0
-7 -8 9 0
7 -9 0
8 -9 0
-9 -10 11 0
9 -11 0
10 -11 0
-11 -12 13 0
11 -13 0
12 -13 0
-13 14 15 0
13 -15 0
-14 -15 0
13 -14 16 0
-13 -16 0
14 -16 0
15 16 17 0
-15 -17 0
-16 -17 0
18 19 20 0
-18 -20 0
-19 -20 0
-20 21 22 0
20 -22 0
-21 -22 0
23 24 25 0
-23 -25 0
-24 -25 0
-25 26 27 0
25 -27 0
-26 -27 0
-22 -27 28 0
22 -28 0
27 -28 0
28 -29 30 0
-28 -30 0
29 -30 0
-17 30 31 0
17 -31 0
-30 -31 0
-24 -29 32 0
24 -32 0
29 -32 0
11 12 33 0
-11 -33 0
-12 -33 0
33 13 34 0
-33 -34 0
-13 -34 0
32 34 35 0
-32 -35 0
-34 -35 0
-32 -34 36 0
32 -36 0
34 -36 0
-21 -29 37 0
21 -37 0
29 -37 0
9 10 38 0
-9 -38 0
-10 -38 0
38 11 39 0
-38 -39 0
-11 -39 0
-37 -39 40 0
37 -40 0
39 -40 0
36 40 41 0
-36 -41 0
-40 -41 0
5 6 42 0
-5 -42 0
-6 -42 0
-23 -29 43 0
23 -43 0
29 -43 0
42 -43 44 0
-42 -44 0
43 -44 0
-44 7 45 0
44 -45 0
-7 -45 0
-18 -29 46 0
18 -46 0
29 -46 0
1 2 47 0
-1 -47 0
-2 -47 0
-46 47 48 0
46 -48 0
-47 -48 0
48 3 49 0
-48 -49 0
-3 -49 0
-26 -29 50 0
26 -50 0
29 -50 0
-50 -4 51 0
50 -51 0
4 -51 0
-49 51 52 0
49 -52 0
-51 -52 0
50 4 53 0
-50 -53 0
-4 -53 0
53 5 54 0
-53 -54 0
-5 -54 0
52 -54 55 0
-52 -55 0
54 -55 0
45 55 56 0
-45 -56 0
-55 -56 0
-19 -29 57 0
19 -57 0
29 -57 0
7 8 58 0
-7 -58 0
-8 -58 0
58 9 59 0
-58 -59 0
-9 -59 0
57 59 60 0
-57 -60 0
-59 -60 0
56 60 61 0
-56 -61 0
-60 -61 0
43 6 62 0
-43 -62 0
-6 -62 0
-61 62 63 0
61 -63 0
-62 -63 0
-57 -59 64 0
57 -64 0
59 -64 0
63 64 65 0
-63 -65 0
-64 -65 0
37 39 66 0
-37 -66 0
-39 -66 0
65 66 67 0
-65 -67 0
-66 -67 0
-41 67 68 0
41 -68 0
-67 -68 0
35 68 69 0
-35 -69 0
-68 -69 0
-28 70 71 0
28 -71 0
-70 -71 0
71 -29 72 0
-71 -72 0
29 -72 0
28 -70 73 0
-28 -73 0
70 -73 0
-72 73 74 0
72 -74 0
-73 -74 0
-69 -74 75 0
69 -75 0
74 -75 0
-31 -75 76 0
31 -76 0
75 -76 0
31 75 77 0
-31 -77 0
-75 -77 0
17 -30 78 0
-17 -78 0
30 -78 0
69 74 79 0
-69 -79 0
-74 -79 0
78 79 80 0
-78 -80 0
-79 -80 0
-77 80 81 0
77 -81 0
-80 -81 0
76 81 82 0
-76 -82 0
-81 -82 0
-82 0
